p cnf 1520
-9 -130
-10 -48
-11 -51
-12 -54
-13 -57
-14 -152
-15 -158
-16 -164
-17 -170
-18 -194
-19 -213
-20 -231
-21 -241
-22 -260
-23 -279
-24 -297
-25 -307
-26 -326
-27 -345
-28 -363
-29 -373
-30 -392
-31 -411
-32 -429
-33 -439
-34 -479
-35 -485
-36 -491
-37 1
-37 -14
-1 14 37
-38 2
-38 -15
-2 15 38
-39 3
-39 -16
-3 16 39
-40 4
-40 -17
-4 17 40
-41 -37
-41 38
37 -38 41
-42 -37
-42 -41
37 41 42
-43 39
-43 42
-39 -42 43
-44 42
-44 -43
-42 43 44
-45 40
-45 44
-40 -44 45
-46 -9
-46 37
9 -37 46
-47 9
-47 10
-9 -10 47
-48 -46
-48 -47
46 47 48
-49 -9
-49 41
9 -41 49
-50 9
-50 11
-9 -11 50
-51 -49
-51 -50
49 50 51
-52 -9
-52 43
9 -43 52
-53 9
-53 12
-9 -12 53
-54 -52
-54 -53
52 53 54
-55 -9
-55 45
9 -45 55
-56 9
-56 13
-9 -13 56
-57 -55
-57 -56
55 56 57
-58 1
-58 -48
-1 48 58
-59 2
-59 -51
-2 51 59
-60 3
-60 -54
-3 54 60
-61 4
-61 -57
-4 57 61
-62 18
-62 -19
-18 19 62
-63 -20
-63 -21
20 21 63
-64 62
-64 63
-62 -63 64
-65 -18
-65 -19
18 19 65
-66 -20
-66 21
20 -21 66
-67 65
-67 66
-65 -66 67
-68 -64
-68 -67
64 67 68
-69 58
-69 -68
-58 68 69
-70 22
-70 -23
-22 23 70
-71 -24
-71 -25
24 25 71
-72 70
-72 71
-70 -71 72
-73 -22
-73 -23
22 23 73
-74 -24
-74 25
24 -25 74
-75 73
-75 74
-73 -74 75
-76 -72
-76 -75
72 75 76
-77 59
-77 -76
-59 76 77
-78 26
-78 -27
-26 27 78
-79 -28
-79 -29
28 29 79
-80 78
-80 79
-78 -79 80
-81 -26
-81 -27
26 27 81
-82 -28
-82 29
28 -29 82
-83 81
-83 82
-81 -82 83
-84 -80
-84 -83
80 83 84
-85 60
-85 -84
-60 84 85
-86 30
-86 -31
-30 31 86
-87 -32
-87 -33
32 33 87
-88 86
-88 87
-86 -87 88
-89 -30
-89 -31
30 31 89
-90 -32
-90 33
32 -33 90
-91 89
-91 90
-89 -90 91
-92 -88
-92 -91
88 91 92
-93 61
-93 -92
-61 92 93
-94 -69
-94 -77
69 77 94
-95 -85
-95 -93
85 93 95
-96 94
-96 95
-94 -95 96
-97 -18
-97 19
18 -19 97
-98 20
-98 -21
-20 21 98
-99 97
-99 98
-97 -98 99
-100 20
-100 21
-20 -21 100
-101 62
-101 100
-62 -100 101
-102 -99
-102 -101
99 101 102
-103 58
-103 -102
-58 102 103
-104 -22
-104 23
22 -23 104
-105 24
-105 -25
-24 25 105
-106 104
-106 105
-104 -105 106
-107 24
-107 25
-24 -25 107
-108 70
-108 107
-70 -107 108
-109 -106
-109 -108
106 108 109
-110 59
-110 -109
-59 109 110
-111 -26
-111 27
26 -27 111
-112 28
-112 -29
-28 29 112
-113 111
-113 112
-111 -112 113
-114 28
-114 29
-28 -29 114
-115 78
-115 114
-78 -114 115
-116 -113
-116 -115
113 115 116
-117 60
-117 -116
-60 116 117
-118 -30
-118 31
30 -31 118
-119 32
-119 -33
-32 33 119
-120 118
-120 119
-118 -119 120
-121 32
-121 33
-32 -33 121
-122 86
-122 121
-86 -121 122
-123 -120
-123 -122
120 122 123
-124 61
-124 -123
-61 123 124
-125 -103
-125 -110
103 110 125
-126 -117
-126 -124
117 124 126
-127 125
-127 126
-125 -126 127
-128 9
-128 127
-9 -127 128
-129 96
-129 128
-96 -128 129
-130 96
-130 -129
-96 129 130
-131 -14
-131 15
14 -15 131
-132 -14
-132 -131
14 131 132
-133 16
-133 132
-16 -132 133
-134 132
-134 -133
-132 133 134
-135 17
-135 134
-17 -134 135
-136 65
-136 100
-65 -100 136
-137 58
-137 136
-58 -136 137
-138 73
-138 107
-73 -107 138
-139 59
-139 138
-59 -138 139
-140 81
-140 114
-81 -114 140
-141 60
-141 140
-60 -140 141
-142 89
-142 121
-89 -121 142
-143 61
-143 142
-61 -142 143
-144 -137
-144 -139
137 139 144
-145 -141
-145 -143
141 143 145
-146 144
-146 145
-144 -145 146
-147 62
-147 98
-62 -98 147
-148 58
-148 147
-58 -147 148
-149 14
-149 -146
-14 146 149
-150 14
-150 -149
-14 149 150
-151 -148
-151 150
148 -150 151
-152 -148
-152 -151
148 151 152
-153 70
-153 105
-70 -105 153
-154 59
-154 153
-59 -153 154
-155 131
-155 -146
-131 146 155
-156 15
-156 -155
-15 155 156
-157 -154
-157 156
154 -156 157
-158 -154
-158 -157
154 157 158
-159 78
-159 112
-78 -112 159
-160 60
-160 159
-60 -159 160
-161 133
-161 -146
-133 146 161
-162 16
-162 -161
-16 161 162
-163 -160
-163 162
160 -162 163
-164 -160
-164 -163
160 163 164
-165 86
-165 119
-86 -119 165
-166 61
-166 165
-61 -165 166
-167 135
-167 -146
-135 146 167
-168 17
-168 -167
-17 167 168
-169 -166
-169 168
166 -168 169
-170 -166
-170 -169
166 169 170
-171 -14
-171 -15
14 15 171
-172 -16
-172 -17
16 17 172
-173 171
-173 172
-171 -172 173
-174 -34
-174 -35
34 35 174
-175 36
-175 174
-36 -174 175
-176 -19
-176 -65
19 65 176
-177 20
-177 65
-20 -65 177
-178 -20
-178 -176
20 176 178
-179 -177
-179 -178
177 178 179
-180 -5
-180 18
5 -18 180
-181 18
-181 -180
-18 180 181
-182 19
-182 -181
-19 181 182
-183 5
-183 -18
-5 18 183
-184 -19
-184 183
19 -183 184
-185 -97
-185 -184
97 184 185
-186 20
-186 182
-20 -182 186
-187 -20
-187 -185
20 185 187
-188 -186
-188 -187
186 187 188
-189 21
-189 -179
-21 179 189
-190 -21
-190 -188
21 188 190
-191 -189
-191 -190
189 190 191
-192 58
-192 -191
-58 191 192
-193 18
-193 -58
-18 58 193
-194 -192
-194 -193
192 193 194
-195 18
-195 173
-18 -173 195
-196 -19
-196 195
19 -195 196
-197 -97
-197 -196
97 196 197
-198 20
-198 62
-20 -62 198
-199 -20
-199 -197
20 197 199
-200 -198
-200 -199
198 199 200
-201 19
-201 -182
-19 182 201
-202 -18
-202 -175
18 175 202
-203 19
-203 202
-19 -202 203
-204 -62
-204 -203
62 203 204
-205 20
-205 -201
-20 201 205
-206 -20
-206 -204
20 204 206
-207 -205
-207 -206
205 206 207
-208 21
-208 -200
-21 200 208
-209 -21
-209 -207
21 207 209
-210 -208
-210 -209
208 209 210
-211 58
-211 -210
-58 210 211
-212 19
-212 -58
-19 58 212
-213 -211
-213 -212
211 212 213
-214 18
-214 -173
-18 173 214
-215 18
-215 19
-18 -19 215
-216 -19
-216 214
19 -214 216
-217 -215
-217 -216
215 216 217
-218 -19
-218 20
19 -20 218
-219 -20
-219 -217
20 217 219
-220 -218
-220 -219
218 219 220
-221 -18
-221 175
18 -175 221
-222 -18
-222 -221
18 221 222
-223 19
-223 -222
-19 222 223
-224 -20
-224 223
20 -223 224
-225 -205
-225 -224
205 224 225
-226 21
-226 -220
-21 220 226
-227 -21
-227 -225
21 225 227
-228 -226
-228 -227
226 227 228
-229 58
-229 -228
-58 228 229
-230 20
-230 -58
-20 58 230
-231 -229
-231 -230
229 230 231
-232 20
-232 -218
-20 218 232
-233 5
-233 18
-5 -18 233
-234 19
-234 233
-19 -233 234
-235 20
-235 234
-20 -234 235
-236 21
-236 -232
-21 232 236
-237 -21
-237 235
21 -235 237
-238 -236
-238 -237
236 237 238
-239 58
-239 -238
-58 238 239
-240 21
-240 -58
-21 58 240
-241 -239
-241 -240
239 240 241
-242 -23
-242 -73
23 73 242
-243 24
-243 73
-24 -73 243
-244 -24
-244 -242
24 242 244
-245 -243
-245 -244
243 244 245
-246 -6
-246 22
6 -22 246
-247 22
-247 -246
-22 246 247
-248 23
-248 -247
-23 247 248
-249 6
-249 -22
-6 22 249
-250 -23
-250 249
23 -249 250
-251 -104
-251 -250
104 250 251
-252 24
-252 248
-24 -248 252
-253 -24
-253 -251
24 251 253
-254 -252
-254 -253
252 253 254
-255 25
-255 -245
-25 245 255
-256 -25
-256 -254
25 254 256
-257 -255
-257 -256
255 256 257
-258 59
-258 -257
-59 257 258
-259 22
-259 -59
-22 59 259
-260 -258
-260 -259
258 259 260
-261 22
-261 173
-22 -173 261
-262 -23
-262 261
23 -261 262
-263 -104
-263 -262
104 262 263
-264 24
-264 70
-24 -70 264
-265 -24
-265 -263
24 263 265
-266 -264
-266 -265
264 265 266
-267 23
-267 -248
-23 248 267
-268 -22
-268 -175
22 175 268
-269 23
-269 268
-23 -268 269
-270 -70
-270 -269
70 269 270
-271 24
-271 -267
-24 267 271
-272 -24
-272 -270
24 270 272
-273 -271
-273 -272
271 272 273
-274 25
-274 -266
-25 266 274
-275 -25
-275 -273
25 273 275
-276 -274
-276 -275
274 275 276
-277 59
-277 -276
-59 276 277
-278 23
-278 -59
-23 59 278
-279 -277
-279 -278
277 278 279
-280 22
-280 -173
-22 173 280
-281 22
-281 23
-22 -23 281
-282 -23
-282 280
23 -280 282
-283 -281
-283 -282
281 282 283
-284 -23
-284 24
23 -24 284
-285 -24
-285 -283
24 283 285
-286 -284
-286 -285
284 285 286
-287 -22
-287 175
22 -175 287
-288 -22
-288 -287
22 287 288
-289 23
-289 -288
-23 288 289
-290 -24
-290 289
24 -289 290
-291 -271
-291 -290
271 290 291
-292 25
-292 -286
-25 286 292
-293 -25
-293 -291
25 291 293
-294 -292
-294 -293
292 293 294
-295 59
-295 -294
-59 294 295
-296 24
-296 -59
-24 59 296
-297 -295
-297 -296
295 296 297
-298 24
-298 -284
-24 284 298
-299 6
-299 22
-6 -22 299
-300 23
-300 299
-23 -299 300
-301 24
-301 300
-24 -300 301
-302 25
-302 -298
-25 298 302
-303 -25
-303 301
25 -301 303
-304 -302
-304 -303
302 303 304
-305 59
-305 -304
-59 304 305
-306 25
-306 -59
-25 59 306
-307 -305
-307 -306
305 306 307
-308 -27
-308 -81
27 81 308
-309 28
-309 81
-28 -81 309
-310 -28
-310 -308
28 308 310
-311 -309
-311 -310
309 310 311
-312 -7
-312 26
7 -26 312
-313 26
-313 -312
-26 312 313
-314 27
-314 -313
-27 313 314
-315 7
-315 -26
-7 26 315
-316 -27
-316 315
27 -315 316
-317 -111
-317 -316
111 316 317
-318 28
-318 314
-28 -314 318
-319 -28
-319 -317
28 317 319
-320 -318
-320 -319
318 319 320
-321 29
-321 -311
-29 311 321
-322 -29
-322 -320
29 320 322
-323 -321
-323 -322
321 322 323
-324 60
-324 -323
-60 323 324
-325 26
-325 -60
-26 60 325
-326 -324
-326 -325
324 325 326
-327 26
-327 173
-26 -173 327
-328 -27
-328 327
27 -327 328
-329 -111
-329 -328
111 328 329
-330 28
-330 78
-28 -78 330
-331 -28
-331 -329
28 329 331
-332 -330
-332 -331
330 331 332
-333 27
-333 -314
-27 314 333
-334 -26
-334 -175
26 175 334
-335 27
-335 334
-27 -334 335
-336 -78
-336 -335
78 335 336
-337 28
-337 -333
-28 333 337
-338 -28
-338 -336
28 336 338
-339 -337
-339 -338
337 338 339
-340 29
-340 -332
-29 332 340
-341 -29
-341 -339
29 339 341
-342 -340
-342 -341
340 341 342
-343 60
-343 -342
-60 342 343
-344 27
-344 -60
-27 60 344
-345 -343
-345 -344
343 344 345
-346 26
-346 -173
-26 173 346
-347 26
-347 27
-26 -27 347
-348 -27
-348 346
27 -346 348
-349 -347
-349 -348
347 348 349
-350 -27
-350 28
27 -28 350
-351 -28
-351 -349
28 349 351
-352 -350
-352 -351
350 351 352
-353 -26
-353 175
26 -175 353
-354 -26
-354 -353
26 353 354
-355 27
-355 -354
-27 354 355
-356 -28
-356 355
28 -355 356
-357 -337
-357 -356
337 356 357
-358 29
-358 -352
-29 352 358
-359 -29
-359 -357
29 357 359
-360 -358
-360 -359
358 359 360
-361 60
-361 -360
-60 360 361
-362 28
-362 -60
-28 60 362
-363 -361
-363 -362
361 362 363
-364 28
-364 -350
-28 350 364
-365 7
-365 26
-7 -26 365
-366 27
-366 365
-27 -365 366
-367 28
-367 366
-28 -366 367
-368 29
-368 -364
-29 364 368
-369 -29
-369 367
29 -367 369
-370 -368
-370 -369
368 369 370
-371 60
-371 -370
-60 370 371
-372 29
-372 -60
-29 60 372
-373 -371
-373 -372
371 372 373
-374 -31
-374 -89
31 89 374
-375 32
-375 89
-32 -89 375
-376 -32
-376 -374
32 374 376
-377 -375
-377 -376
375 376 377
-378 -8
-378 30
8 -30 378
-379 30
-379 -378
-30 378 379
-380 31
-380 -379
-31 379 380
-381 8
-381 -30
-8 30 381
-382 -31
-382 381
31 -381 382
-383 -118
-383 -382
118 382 383
-384 32
-384 380
-32 -380 384
-385 -32
-385 -383
32 383 385
-386 -384
-386 -385
384 385 386
-387 33
-387 -377
-33 377 387
-388 -33
-388 -386
33 386 388
-389 -387
-389 -388
387 388 389
-390 61
-390 -389
-61 389 390
-391 30
-391 -61
-30 61 391
-392 -390
-392 -391
390 391 392
-393 30
-393 173
-30 -173 393
-394 -31
-394 393
31 -393 394
-395 -118
-395 -394
118 394 395
-396 32
-396 86
-32 -86 396
-397 -32
-397 -395
32 395 397
-398 -396
-398 -397
396 397 398
-399 31
-399 -380
-31 380 399
-400 -30
-400 -175
30 175 400
-401 31
-401 400
-31 -400 401
-402 -86
-402 -401
86 401 402
-403 32
-403 -399
-32 399 403
-404 -32
-404 -402
32 402 404
-405 -403
-405 -404
403 404 405
-406 33
-406 -398
-33 398 406
-407 -33
-407 -405
33 405 407
-408 -406
-408 -407
406 407 408
-409 61
-409 -408
-61 408 409
-410 31
-410 -61
-31 61 410
-411 -409
-411 -410
409 410 411
-412 30
-412 -173
-30 173 412
-413 30
-413 31
-30 -31 413
-414 -31
-414 412
31 -412 414
-415 -413
-415 -414
413 414 415
-416 -31
-416 32
31 -32 416
-417 -32
-417 -415
32 415 417
-418 -416
-418 -417
416 417 418
-419 -30
-419 175
30 -175 419
-420 -30
-420 -419
30 419 420
-421 31
-421 -420
-31 420 421
-422 -32
-422 421
32 -421 422
-423 -403
-423 -422
403 422 423
-424 33
-424 -418
-33 418 424
-425 -33
-425 -423
33 423 425
-426 -424
-426 -425
424 425 426
-427 61
-427 -426
-61 426 427
-428 32
-428 -61
-32 61 428
-429 -427
-429 -428
427 428 429
-430 32
-430 -416
-32 416 430
-431 8
-431 30
-8 -30 431
-432 31
-432 431
-31 -431 432
-433 32
-433 432
-32 -432 433
-434 33
-434 -430
-33 430 434
-435 -33
-435 433
33 -433 435
-436 -434
-436 -435
434 435 436
-437 61
-437 -436
-61 436 437
-438 33
-438 -61
-33 61 438
-439 -437
-439 -438
437 438 439
-440 63
-440 215
-63 -215 440
-441 58
-441 440
-58 -440 441
-442 71
-442 281
-71 -281 442
-443 59
-443 442
-59 -442 443
-444 79
-444 347
-79 -347 444
-445 60
-445 444
-60 -444 445
-446 87
-446 413
-87 -413 446
-447 61
-447 446
-61 -446 447
-448 -441
-448 -443
441 443 448
-449 -445
-449 -447
445 447 449
-450 448
-450 449
-448 -449 450
-451 66
-451 97
-66 -97 451
-452 58
-452 451
-58 -451 452
-453 74
-453 104
-74 -104 453
-454 59
-454 453
-59 -453 454
-455 82
-455 111
-82 -111 455
-456 60
-456 455
-60 -455 456
-457 90
-457 118
-90 -118 457
-458 61
-458 457
-61 -457 458
-459 -452
-459 -454
452 454 459
-460 -456
-460 -458
456 458 460
-461 459
-461 460
-459 -460 461
-462 -34
-462 35
34 -35 462
-463 34
-463 -35
-34 35 463
-464 -462
-464 -463
462 463 464
-465 34
-465 35
-34 -35 465
-466 36
-466 -465
-36 465 466
-467 -36
-467 465
36 -465 467
-468 -466
-468 -467
466 467 468
-469 36
-469 465
-36 -465 469
-470 -174
-470 -465
174 465 470
-471 36
-471 -174
-36 174 471
-472 -36
-472 174
36 -174 472
-473 -471
-473 -472
471 472 473
-474 -34
-474 -461
34 461 474
-475 34
-475 461
-34 -461 475
-476 -474
-476 -475
474 475 476
-477 -34
-477 -450
34 450 477
-478 450
-478 -476
-450 476 478
-479 -477
-479 -478
477 478 479
-480 -461
-480 -470
461 470 480
-481 35
-481 461
-35 -461 481
-482 -480
-482 -481
480 481 482
-483 -450
-483 -464
450 464 483
-484 450
-484 -482
-450 482 484
-485 -483
-485 -484
483 484 485
-486 -461
-486 -473
461 473 486
-487 36
-487 461
-36 -461 487
-488 -486
-488 -487
486 487 488
-489 -450
-489 -468
450 468 489
-490 450
-490 -488
-450 488 490
-491 -489
-491 -490
489 490 491
-492 98
-492 215
-98 -215 492
-493 -14
-493 492
14 -492 493
-494 105
-494 281
-105 -281 494
-495 -15
-495 494
15 -494 495
-496 112
-496 347
-112 -347 496
-497 -16
-497 496
16 -496 497
-498 119
-498 413
-119 -413 498
-499 -17
-499 498
17 -498 499
-500 493
-500 -495
-493 495 500
-501 -493
-501 495
493 -495 501
-502 -500
-502 -501
500 501 502
-503 493
-503 495
-493 -495 503
-504 -497
-504 -502
497 502 504
-505 497
-505 502
-497 -502 505
-506 -504
-506 -505
504 505 506
-507 497
-507 -502
-497 502 507
-508 503
-508 -507
-503 507 508
-509 -503
-509 507
503 -507 509
-510 -508
-510 -509
508 509 510
-511 503
-511 507
-503 -507 511
-512 -499
-512 -506
499 506 512
-513 499
-513 506
-499 -506 513
-514 -512
-514 -513
512 513 514
-515 499
-515 -506
-499 506 515
-516 -511
-516 -514
511 514 516
-517 511
-517 514
-511 -514 517
-518 -516
-518 -517
516 517 518
-519 511
-519 -514
-511 514 519
-520 -515
-520 -519
515 519 520
-521 -510
-521 520
510 -520 521
-522 510
-522 -520
-510 520 522
-523 -521
-523 -522
521 522 523
-524 -510
-524 -520
510 520 524
-525 -518
-525 523
518 -523 525
-526 523
-526 -525
-523 525 526
-527 524
-527 -526
-524 526 527
-528 -173
-528 -175
173 175 528
-529 -450
-529 469
450 -469 529
-530 -461
-530 472
461 -472 530
-531 -527
-531 -529
527 529 531
-532 -528
-532 -530
528 530 532
-533 531
-533 532
-531 -532 533
-533
